(set-info :origin "NTS benchmark converted to SMT-LIB2 using Eldarica (http://lara.epfl.ch/w/eldarica)")
(set-logic HORN)
(declare-fun p (Int Int Int Int Int Int Int Int Int Int Int Int Int Int Int Int Int Int Int Int Int Int Int Int Int Int Int Int Int Int Int Int Int Int Int Int Int Int Int Int Int Int Int Int Int) Bool)
(assert(forall((A Int)(B Int)(C Int)(D Int)(E Int)(F Int)(G Int)(H Int)(I Int)(J Int)(K Int)(L Int)(M Int)(N Int)(O Int)(P Int)(Q Int)(R Int)(S Int)(T Int)(U Int)(V Int)(W Int)(X Int)(Y Int)(Z Int)(A1 Int)(B1 Int)(C1 Int)(D1 Int)(E1 Int)(F1 Int)(G1 Int)(H1 Int)(I1 Int)(J1 Int)(K1 Int)(L1 Int)(M1 Int)(N1 Int)(O1 Int)(P1 Int)(Q1 Int)(R1 Int)(S1 Int)(T1 Int)(U1 Int)(V1 Int)(W1 Int)(X1 Int)(Y1 Int)(Z1 Int)(A2 Int)(B2 Int)(C2 Int)(D2 Int)(E2 Int)(F2 Int)(G2 Int)(H2 Int)(I2 Int)(J2 Int)(K2 Int)(L2 Int)(M2 Int)(N2 Int)(O2 Int)(P2 Int)(Q2 Int)(R2 Int)(S2 Int)(T2 Int)(U2 Int)(V2 Int)(W2 Int)(X2 Int)(Y2 Int)(Z2 Int))(=>(or (and (and (= A 2) (and (and (and (and (and (and (and (and (and (and (and (and (and (and (and (and (and (and (and (and (and (and (and (and (and (and (and (and (and (and (and (and (and (and (and (and (and (and (and (and (and (and (and (= T1 B) (= U1 C)) (= V1 D)) (= W1 E)) (= X1 F)) (= Y1 G)) (= Z1 H)) (= A2 I)) (= B2 J)) (= C2 K)) (= D2 L)) (= E2 M)) (= F2 N)) (= G2 O)) (= H2 P)) (= I2 Q)) (= J2 R)) (= K2 S)) (= L2 T)) (= M2 U)) (= N2 V)) (= O2 W)) (= T1 X)) (= U1 Y)) (= P2 Z)) (= W1 A1)) (= X1 B1)) (= Y1 C1)) (= Q2 D1)) (= A2 E1)) (= B2 F1)) (= C2 G1)) (= D2 H1)) (= E2 I1)) (= F2 J1)) (= R2 K1)) (= S2 L1)) (= T2 M1)) (= U2 N1)) (= V2 O1)) (= W2 P1)) (= X2 Q1)) (= Y2 R1)) (= Z2 S1))) (and (and (and (and (and (and (and (and (and (and (and (and (not (not (>= (+ (+ Y2 (- 2)) 0) 0))) (not (not (>= (+ (+ W1 (- 1)) 0) 0)))) (not (not (= (* (- 1) Z2) 0)))) (not (not (= (* (- 1) X2) (- 1))))) (not (not (= (+ Y2 1) W2)))) (not (not (= (* (- 1) V2) (- 1))))) (not (not (= (+ Y2 1) U2)))) (not (not (= (* (- 1) T2) (- 1))))) (not (not (= (+ Y2 1) S2)))) (not (not (= (* (- 1) R2) (- 1))))) (not (not (= (* (- 1) Q2) (- 2))))) (not (not (= (+ Y2 1) P2)))) (not (not (= (+ Y2 1) V1))))) (and (and (= A 2) (and (and (and (and (and (and (and (and (and (and (and (and (and (and (and (and (and (and (and (and (and (and (and (and (and (and (and (and (and (and (and (and (and (and (and (and (and (and (and (and (and (and (and (= T1 B) (= U1 C)) (= V1 D)) (= W1 E)) (= X1 F)) (= Y1 G)) (= Z1 H)) (= A2 I)) (= B2 J)) (= C2 K)) (= D2 L)) (= E2 M)) (= F2 N)) (= G2 O)) (= H2 P)) (= I2 Q)) (= J2 R)) (= K2 S)) (= L2 T)) (= M2 U)) (= N2 V)) (= O2 W)) (= T1 X)) (= U1 Y)) (= P2 Z)) (= W1 A1)) (= X1 B1)) (= Y1 C1)) (= Q2 D1)) (= A2 E1)) (= B2 F1)) (= C2 G1)) (= D2 H1)) (= E2 I1)) (= F2 J1)) (= R2 K1)) (= S2 L1)) (= T2 M1)) (= U2 N1)) (= V2 O1)) (= W2 P1)) (= X2 Q1)) (= Y2 R1)) (= O2 S1))) (and (and (and (and (and (and (and (and (and (and (and (not (not (>= (+ (+ Y2 (- 2)) 0) 0))) (not (not (>= (+ (- (- 1) W1) 0) 0)))) (not (not (= (* (- 1) X2) (- 1))))) (not (not (= (+ Y2 1) W2)))) (not (not (= (* (- 1) V2) (- 1))))) (not (not (= (+ Y2 1) U2)))) (not (not (= (* (- 1) T2) (- 1))))) (not (not (= (+ Y2 1) S2)))) (not (not (= (* (- 1) R2) (- 1))))) (not (not (= (* (- 1) Q2) (- 2))))) (not (not (= (+ Y2 1) P2)))) (not (not (= (+ Y2 1) V1)))))) (p A B C D E F G H I J K L M N O P Q R S T U V W X Y Z A1 B1 C1 D1 E1 F1 G1 H1 I1 J1 K1 L1 M1 N1 O1 P1 Q1 R1 S1))))
(assert(forall((A Int)(B Int)(C Int)(D Int)(E Int)(F Int)(G Int)(H Int)(I Int)(J Int)(K Int)(L Int)(M Int)(N Int)(O Int)(P Int)(Q Int)(R Int)(S Int)(T Int)(U Int)(V Int)(W Int)(X Int)(Y Int)(Z Int)(A1 Int)(B1 Int)(C1 Int)(D1 Int)(E1 Int)(F1 Int)(G1 Int)(H1 Int)(I1 Int)(J1 Int)(K1 Int)(L1 Int)(M1 Int)(N1 Int)(O1 Int)(P1 Int)(Q1 Int)(R1 Int)(S1 Int)(T1 Int)(U1 Int)(V1 Int)(W1 Int)(X1 Int)(Y1 Int)(Z1 Int)(A2 Int)(B2 Int)(C2 Int)(D2 Int)(E2 Int)(F2 Int)(G2 Int)(H2 Int)(I2 Int)(J2 Int)(K2 Int)(L2 Int)(M2 Int)(N2 Int)(O2 Int)(P2 Int)(Q2 Int)(R2 Int)(S2 Int)(T2 Int)(U2 Int)(V2 Int)(W2 Int)(X2 Int)(Y2 Int)(Z2 Int)(A3 Int)(B3 Int)(C3 Int)(D3 Int)(E3 Int)(F3 Int)(G3 Int)(H3 Int)(I3 Int)(J3 Int)(K3 Int)(L3 Int)(M3 Int)(N3 Int)(O3 Int)(P3 Int)(Q3 Int)(R3 Int)(S3 Int)(T3 Int)(U3 Int)(V3 Int)(W3 Int)(X3 Int)(Y3 Int)(Z3 Int)(A4 Int)(B4 Int)(C4 Int)(D4 Int)(E4 Int)(F4 Int)(G4 Int)(H4 Int)(I4 Int)(J4 Int)(K4 Int)(L4 Int)(M4 Int)(N4 Int)(O4 Int)(P4 Int)(Q4 Int)(R4 Int)(S4 Int)(T4 Int)(U4 Int)(V4 Int)(W4 Int)(X4 Int)(Y4 Int)(Z4 Int)(A5 Int)(B5 Int)(C5 Int)(D5 Int))(=>(and (and (and (and (and (= A 1) (= T1 2)) (and (and (and (and (and (and (and (and (and (and (and (and (and (and (and (and (and (and (and (and (and (and (and (and (and (and (and (and (and (and (and (and (and (and (and (and (and (and (and (and (and (and (and (= U1 B) (= V1 C)) (= W1 D)) (= X1 E)) (= Y1 F)) (= Z1 G)) (= A2 H)) (= B2 I)) (= C2 J)) (= D2 K)) (= E2 L)) (= F2 M)) (= G2 N)) (= H2 O)) (= I2 P)) (= J2 Q)) (= K2 R)) (= L2 S)) (= M2 T)) (= N2 U)) (= O2 V)) (= P2 W)) (= Q2 X)) (= R2 Y)) (= S2 Z)) (= T2 A1)) (= U2 B1)) (= V2 C1)) (= W2 D1)) (= X2 E1)) (= Y2 F1)) (= Z2 G1)) (= A3 H1)) (= B3 I1)) (= C3 J1)) (= D3 K1)) (= E3 L1)) (= F3 M1)) (= G3 N1)) (= H3 O1)) (= I3 P1)) (= J3 Q1)) (= K3 R1)) (= L3 S1))) (and (and (and (and (and (and (and (and (and (and (and (and (and (and (and (and (and (and (and (and (and (and (and (and (and (and (and (and (and (and (and (and (and (and (and (and (and (and (and (and (and (and (and (= U1 M3) (= V1 N3)) (= W1 O3)) (= X1 P3)) (= Y1 Q3)) (= Z1 R3)) (= A2 S3)) (= B2 T3)) (= C2 U3)) (= D2 V3)) (= E2 W3)) (= F2 X3)) (= G2 Y3)) (= H2 Z3)) (= I2 A4)) (= J2 B4)) (= K2 C4)) (= L2 D4)) (= M2 E4)) (= N2 F4)) (= O2 G4)) (= P2 H4)) (= Q2 I4)) (= R2 J4)) (= S2 K4)) (= T2 L4)) (= U2 M4)) (= V2 N4)) (= W2 O4)) (= X2 P4)) (= Y2 Q4)) (= Z2 R4)) (= A3 S4)) (= B3 T4)) (= C3 U4)) (= D3 V4)) (= E3 W4)) (= F3 X4)) (= G3 Y4)) (= H3 Z4)) (= I3 A5)) (= J3 B5)) (= K3 C5)) (= L3 D5))) true) (p T1 M3 N3 O3 P3 Q3 R3 S3 T3 U3 V3 W3 X3 Y3 Z3 A4 B4 C4 D4 E4 F4 G4 H4 I4 J4 K4 L4 M4 N4 O4 P4 Q4 R4 S4 T4 U4 V4 W4 X4 Y4 Z4 A5 B5 C5 D5)) (p A B C D E F G H I J K L M N O P Q R S T U V W X Y Z A1 B1 C1 D1 E1 F1 G1 H1 I1 J1 K1 L1 M1 N1 O1 P1 Q1 R1 S1))))
(assert(not (exists((A Int)(B Int)(C Int)(D Int)(E Int)(F Int)(G Int)(H Int)(I Int)(J Int)(K Int)(L Int)(M Int)(N Int)(O Int)(P Int)(Q Int)(R Int)(S Int)(T Int)(U Int)(V Int)(W Int)(X Int)(Y Int)(Z Int)(A1 Int)(B1 Int)(C1 Int)(D1 Int)(E1 Int)(F1 Int)(G1 Int)(H1 Int)(I1 Int)(J1 Int)(K1 Int)(L1 Int)(M1 Int)(N1 Int)(O1 Int)(P1 Int)(Q1 Int)(R1 Int)(S1 Int)(T1 Int)(U1 Int)(V1 Int)(W1 Int)(X1 Int)(Y1 Int)(Z1 Int)(A2 Int)(B2 Int)(C2 Int)(D2 Int)(E2 Int)(F2 Int)(G2 Int)(H2 Int)(I2 Int)(J2 Int)(K2 Int)(L2 Int)(M2 Int)(N2 Int)(O2 Int)(P2 Int)(Q2 Int)(R2 Int)(S2 Int)(T2 Int)(U2 Int)(V2 Int)(W2 Int)(X2 Int)(Y2 Int)(Z2 Int)(A3 Int)(B3 Int)(C3 Int)(D3 Int)(E3 Int)(F3 Int)(G3 Int)(H3 Int)(I3 Int)(J3 Int)(K3 Int))(and (and (and (= A 1) (and (and (and (and (and (and (and (and (and (and (and (and (and (and (and (and (and (and (and (and (and (and (and (and (and (and (and (and (and (and (and (and (and (and (and (and (and (and (and (and (and (and (and (= B C) (= D E)) (= F G)) (= H I)) (= J K)) (= L M)) (= N O)) (= P Q)) (= R S)) (= T U)) (= V W)) (= X Y)) (= Z A1)) (= B1 C1)) (= D1 E1)) (= F1 G1)) (= H1 I1)) (= J1 K1)) (= L1 M1)) (= N1 O1)) (= P1 Q1)) (= R1 S1)) (= T1 U1)) (= V1 W1)) (= X1 Y1)) (= Z1 A2)) (= B2 C2)) (= D2 E2)) (= F2 G2)) (= H2 I2)) (= J2 K2)) (= L2 M2)) (= N2 O2)) (= P2 Q2)) (= R2 S2)) (= T2 U2)) (= V2 W2)) (= X2 Y2)) (= Z2 A3)) (= B3 C3)) (= D3 E3)) (= F3 G3)) (= H3 I3)) (= J3 K3))) (and (not (not (>= (+ (- T2 F2) 0) 0))) (not (not (>= (+ (+ (- X1 F2) (- 1)) 0) 0))))) (p A C E G I K M O Q S U W Y A1 C1 E1 G1 I1 K1 M1 O1 Q1 S1 U1 W1 Y1 A2 C2 E2 G2 I2 K2 M2 O2 Q2 S2 U2 W2 Y2 A3 C3 E3 G3 I3 K3)))))
(check-sat)
